% Generated by MiniZinc 2.9.4
% Solver library: 
% Command line invocation: /home/vro5/minizinc-custom/bin/minizinc -c --solver mzn-fzn -I /home/vro5/Coding/minizincHLstdlib/std ../mznc2025_probs/atsp/atsp.mzn ../mznc2025_probs/atsp/instance1_0p05.dzn 

predicate fzn_if_then_else_var_int(array [int] of var bool: c,array [int] of var int: x,var int: y);
array [1..3] of int: X_INTRODUCED_68_ = [0,9,7];
array [1..3] of int: X_INTRODUCED_69_ = [1,1,-1];
array [1..5] of int: X_INTRODUCED_99_ = [-1,-1,-1,-1,-1];
array [1..2] of int: X_INTRODUCED_128_ = [1,-3570];
array [1..2] of int: X_INTRODUCED_134_ = [1,-3060];
array [1..2] of int: X_INTRODUCED_175_ = [1,-1];
array [1..4] of int: X_INTRODUCED_180_ = [1,-1,-1,-300];
array [1..6] of int: X_INTRODUCED_189_ = [1,-1,-1,-300,-1,-300];
array [1..8] of int: X_INTRODUCED_198_ = [1,-1,-1,-300,-1,-300,-1,-300];
array [1..10] of int: X_INTRODUCED_207_ = [1,-1,-1,-300,-1,-300,-1,-300,-1,-300];
array [1..4] of int: X_INTRODUCED_266_ = [1,1,1,1];
array [1..11] of int: X_INTRODUCED_326_ = [1,-1,-1,-1,-1,-1,-1,-1,-1,-1,-1];
array [1..3] of int: X_INTRODUCED_334_ = [1,-1,-1];
var 0..2: X_INTRODUCED_0_;
var 0..2: X_INTRODUCED_1_;
var 0..2: X_INTRODUCED_2_;
var 0..2: X_INTRODUCED_3_;
var 0..2: X_INTRODUCED_4_;
var 2..30: X_INTRODUCED_5_;
var 2..30: X_INTRODUCED_6_;
var 2..30: X_INTRODUCED_7_;
var 2..30: X_INTRODUCED_8_;
var 2..30: X_INTRODUCED_9_;
var 0..9: X_INTRODUCED_11_;
var 0..3: X_INTRODUCED_12_;
var 0..9: X_INTRODUCED_13_;
var 0..3: X_INTRODUCED_14_;
var 0..9: X_INTRODUCED_15_;
var 0..3: X_INTRODUCED_16_;
var 0..9: X_INTRODUCED_17_;
var 0..3: X_INTRODUCED_18_;
var 0..9: X_INTRODUCED_19_;
var 0..3: X_INTRODUCED_20_;
var 6120..538500: X_INTRODUCED_32_;
var 6120..538500: X_INTRODUCED_33_;
var 6120..538500: X_INTRODUCED_34_;
var 6120..538500: X_INTRODUCED_35_;
var 6120..538500: X_INTRODUCED_36_;
var 0..107100: X_INTRODUCED_37_;
var 0..107100: X_INTRODUCED_38_;
var 0..107100: X_INTRODUCED_39_;
var 0..107100: X_INTRODUCED_40_;
var 0..107100: X_INTRODUCED_41_;
var 1..5: X_INTRODUCED_44_;
var 1..5: X_INTRODUCED_45_;
var 6120..538500: makespan:: is_defined_var:: output_var;
var 0..1350: waste:: output_var:: is_defined_var;
var 642199..1685430: tardiness:: output_var:: is_defined_var;
var 6120..2225280: X_INTRODUCED_47_:: is_defined_var;
var bool: X_INTRODUCED_49_ ::var_is_introduced :: is_defined_var;
var bool: X_INTRODUCED_50_ ::var_is_introduced :: is_defined_var;
var bool: X_INTRODUCED_51_ ::var_is_introduced :: is_defined_var;
var bool: X_INTRODUCED_52_ ::var_is_introduced :: is_defined_var;
var bool: X_INTRODUCED_53_ ::var_is_introduced :: is_defined_var;
var bool: X_INTRODUCED_54_ ::var_is_introduced :: is_defined_var;
var bool: X_INTRODUCED_55_ ::var_is_introduced :: is_defined_var;
var bool: X_INTRODUCED_56_ ::var_is_introduced :: is_defined_var;
var bool: X_INTRODUCED_57_ ::var_is_introduced :: is_defined_var;
var bool: X_INTRODUCED_58_ ::var_is_introduced :: is_defined_var;
var bool: X_INTRODUCED_59_ ::var_is_introduced :: is_defined_var;
var bool: X_INTRODUCED_60_ ::var_is_introduced :: is_defined_var;
var bool: X_INTRODUCED_61_ ::var_is_introduced :: is_defined_var;
var bool: X_INTRODUCED_62_ ::var_is_introduced :: is_defined_var;
var 0..9: X_INTRODUCED_65_ ::var_is_introduced :: is_defined_var;
var 1..3: X_INTRODUCED_67_ ::var_is_introduced :: is_defined_var;
var 0..9: X_INTRODUCED_71_ ::var_is_introduced :: is_defined_var;
var 1..3: X_INTRODUCED_72_ ::var_is_introduced :: is_defined_var;
var 0..9: X_INTRODUCED_74_ ::var_is_introduced :: is_defined_var;
var 1..3: X_INTRODUCED_75_ ::var_is_introduced :: is_defined_var;
var 0..9: X_INTRODUCED_77_ ::var_is_introduced :: is_defined_var;
var 1..3: X_INTRODUCED_78_ ::var_is_introduced :: is_defined_var;
var 0..9: X_INTRODUCED_80_ ::var_is_introduced :: is_defined_var;
var 1..3: X_INTRODUCED_81_ ::var_is_introduced :: is_defined_var;
var bool: X_INTRODUCED_101_ ::var_is_introduced :: is_defined_var;
var bool: X_INTRODUCED_102_ ::var_is_introduced :: is_defined_var;
var bool: X_INTRODUCED_103_ ::var_is_introduced :: is_defined_var;
var bool: X_INTRODUCED_104_ ::var_is_introduced :: is_defined_var;
var bool: X_INTRODUCED_105_ ::var_is_introduced :: is_defined_var;
var bool: X_INTRODUCED_106_ ::var_is_introduced :: is_defined_var;
var bool: X_INTRODUCED_107_ ::var_is_introduced :: is_defined_var;
var bool: X_INTRODUCED_108_ ::var_is_introduced :: is_defined_var;
var bool: X_INTRODUCED_109_ ::var_is_introduced :: is_defined_var;
var bool: X_INTRODUCED_110_ ::var_is_introduced :: is_defined_var;
var bool: X_INTRODUCED_111_ ::var_is_introduced :: is_defined_var;
var bool: X_INTRODUCED_112_ ::var_is_introduced :: is_defined_var;
var bool: X_INTRODUCED_113_ ::var_is_introduced :: is_defined_var;
var bool: X_INTRODUCED_114_ ::var_is_introduced :: is_defined_var;
var bool: X_INTRODUCED_115_ ::var_is_introduced :: is_defined_var;
var 0..270: X_INTRODUCED_116_ ::var_is_introduced :: is_defined_var;
var 0..90: X_INTRODUCED_117_ ::var_is_introduced :: is_defined_var;
var 0..270: X_INTRODUCED_118_ ::var_is_introduced :: is_defined_var;
var 0..90: X_INTRODUCED_119_ ::var_is_introduced :: is_defined_var;
var 0..270: X_INTRODUCED_120_ ::var_is_introduced :: is_defined_var;
var 0..90: X_INTRODUCED_121_ ::var_is_introduced :: is_defined_var;
var 0..270: X_INTRODUCED_122_ ::var_is_introduced :: is_defined_var;
var 0..90: X_INTRODUCED_123_ ::var_is_introduced :: is_defined_var;
var 0..270: X_INTRODUCED_124_ ::var_is_introduced :: is_defined_var;
var 0..90: X_INTRODUCED_125_ ::var_is_introduced :: is_defined_var;
var bool: X_INTRODUCED_129_ ::var_is_introduced :: is_defined_var;
var bool: X_INTRODUCED_130_ ::var_is_introduced :: is_defined_var;
var bool: X_INTRODUCED_135_ ::var_is_introduced :: is_defined_var;
var bool: X_INTRODUCED_136_ ::var_is_introduced :: is_defined_var;
var bool: X_INTRODUCED_139_ ::var_is_introduced :: is_defined_var;
var bool: X_INTRODUCED_140_ ::var_is_introduced :: is_defined_var;
var bool: X_INTRODUCED_143_ ::var_is_introduced :: is_defined_var;
var bool: X_INTRODUCED_144_ ::var_is_introduced :: is_defined_var;
var bool: X_INTRODUCED_147_ ::var_is_introduced :: is_defined_var;
var bool: X_INTRODUCED_148_ ::var_is_introduced :: is_defined_var;
var bool: X_INTRODUCED_151_ ::var_is_introduced :: is_defined_var;
var bool: X_INTRODUCED_152_ ::var_is_introduced :: is_defined_var;
var bool: X_INTRODUCED_155_ ::var_is_introduced :: is_defined_var;
var bool: X_INTRODUCED_156_ ::var_is_introduced :: is_defined_var;
var bool: X_INTRODUCED_159_ ::var_is_introduced :: is_defined_var;
var bool: X_INTRODUCED_160_ ::var_is_introduced :: is_defined_var;
var bool: X_INTRODUCED_163_ ::var_is_introduced :: is_defined_var;
var bool: X_INTRODUCED_164_ ::var_is_introduced :: is_defined_var;
var bool: X_INTRODUCED_167_ ::var_is_introduced :: is_defined_var;
var bool: X_INTRODUCED_168_ ::var_is_introduced :: is_defined_var;
var bool: X_INTRODUCED_171_ ::var_is_introduced :: is_defined_var;
var bool: X_INTRODUCED_172_ ::var_is_introduced :: is_defined_var;
var bool: X_INTRODUCED_176_ ::var_is_introduced :: is_defined_var;
var 0..1: X_INTRODUCED_177_ ::var_is_introduced :: is_defined_var;
var bool: X_INTRODUCED_181_ ::var_is_introduced :: is_defined_var;
var bool: X_INTRODUCED_182_ ::var_is_introduced :: is_defined_var;
var bool: X_INTRODUCED_184_ ::var_is_introduced :: is_defined_var;
var 0..1: X_INTRODUCED_185_ ::var_is_introduced :: is_defined_var;
var bool: X_INTRODUCED_190_ ::var_is_introduced :: is_defined_var;
var bool: X_INTRODUCED_191_ ::var_is_introduced :: is_defined_var;
var bool: X_INTRODUCED_193_ ::var_is_introduced :: is_defined_var;
var 0..1: X_INTRODUCED_194_ ::var_is_introduced :: is_defined_var;
var bool: X_INTRODUCED_199_ ::var_is_introduced :: is_defined_var;
var bool: X_INTRODUCED_200_ ::var_is_introduced :: is_defined_var;
var bool: X_INTRODUCED_202_ ::var_is_introduced :: is_defined_var;
var 0..1: X_INTRODUCED_203_ ::var_is_introduced :: is_defined_var;
var bool: X_INTRODUCED_208_ ::var_is_introduced :: is_defined_var;
var bool: X_INTRODUCED_209_ ::var_is_introduced :: is_defined_var;
var bool: X_INTRODUCED_211_ ::var_is_introduced :: is_defined_var;
var bool: X_INTRODUCED_213_ ::var_is_introduced :: is_defined_var;
var bool: X_INTRODUCED_215_ ::var_is_introduced :: is_defined_var;
var bool: X_INTRODUCED_217_ ::var_is_introduced :: is_defined_var;
var bool: X_INTRODUCED_219_ ::var_is_introduced :: is_defined_var;
var 6120..538500: X_INTRODUCED_221_ ::var_is_introduced :: is_defined_var;
var 1..2: X_INTRODUCED_222_ ::var_is_introduced :: is_defined_var;
var set of 1..5: X_INTRODUCED_223_ ::var_is_introduced ;
var bool: X_INTRODUCED_225_ ::var_is_introduced :: is_defined_var;
var bool: X_INTRODUCED_226_ ::var_is_introduced :: is_defined_var;
var bool: X_INTRODUCED_227_ ::var_is_introduced :: is_defined_var;
var bool: X_INTRODUCED_228_ ::var_is_introduced :: is_defined_var;
var bool: X_INTRODUCED_229_ ::var_is_introduced :: is_defined_var;
var bool: X_INTRODUCED_230_ ::var_is_introduced :: is_defined_var;
var bool: X_INTRODUCED_231_ ::var_is_introduced :: is_defined_var;
var bool: X_INTRODUCED_232_ ::var_is_introduced :: is_defined_var;
var 0..270: X_INTRODUCED_233_ ::var_is_introduced :: is_defined_var;
var 0..270: X_INTRODUCED_236_ ::var_is_introduced :: is_defined_var;
var 0..270: X_INTRODUCED_239_ ::var_is_introduced :: is_defined_var;
var 0..270: X_INTRODUCED_242_ ::var_is_introduced :: is_defined_var;
var 0..270: X_INTRODUCED_245_ ::var_is_introduced :: is_defined_var;
var set of 1..4: X_INTRODUCED_251_ ::var_is_introduced ;
var bool: X_INTRODUCED_252_ ::var_is_introduced :: is_defined_var;
var bool: X_INTRODUCED_253_ ::var_is_introduced :: is_defined_var;
var bool: X_INTRODUCED_254_ ::var_is_introduced :: is_defined_var;
var bool: X_INTRODUCED_255_ ::var_is_introduced :: is_defined_var;
var 0..270: X_INTRODUCED_256_ ::var_is_introduced :: is_defined_var;
var 0..270: X_INTRODUCED_258_ ::var_is_introduced :: is_defined_var;
var 0..270: X_INTRODUCED_260_ ::var_is_introduced :: is_defined_var;
var 0..270: X_INTRODUCED_262_ ::var_is_introduced :: is_defined_var;
var 6120..538500: X_INTRODUCED_267_ ::var_is_introduced :: is_defined_var;
var 1..2: X_INTRODUCED_268_ ::var_is_introduced :: is_defined_var;
var set of 1..5: X_INTRODUCED_269_ ::var_is_introduced ;
var bool: X_INTRODUCED_271_ ::var_is_introduced :: is_defined_var;
var bool: X_INTRODUCED_272_ ::var_is_introduced :: is_defined_var;
var bool: X_INTRODUCED_273_ ::var_is_introduced :: is_defined_var;
var bool: X_INTRODUCED_274_ ::var_is_introduced :: is_defined_var;
var bool: X_INTRODUCED_275_ ::var_is_introduced :: is_defined_var;
var bool: X_INTRODUCED_276_ ::var_is_introduced :: is_defined_var;
var bool: X_INTRODUCED_277_ ::var_is_introduced :: is_defined_var;
var bool: X_INTRODUCED_278_ ::var_is_introduced :: is_defined_var;
var 0..90: X_INTRODUCED_279_ ::var_is_introduced :: is_defined_var;
var 0..90: X_INTRODUCED_282_ ::var_is_introduced :: is_defined_var;
var 0..90: X_INTRODUCED_285_ ::var_is_introduced :: is_defined_var;
var 0..90: X_INTRODUCED_288_ ::var_is_introduced :: is_defined_var;
var 0..90: X_INTRODUCED_291_ ::var_is_introduced :: is_defined_var;
var set of 1..4: X_INTRODUCED_297_ ::var_is_introduced ;
var bool: X_INTRODUCED_298_ ::var_is_introduced :: is_defined_var;
var bool: X_INTRODUCED_299_ ::var_is_introduced :: is_defined_var;
var bool: X_INTRODUCED_300_ ::var_is_introduced :: is_defined_var;
var bool: X_INTRODUCED_301_ ::var_is_introduced :: is_defined_var;
var 0..90: X_INTRODUCED_302_ ::var_is_introduced :: is_defined_var;
var 0..90: X_INTRODUCED_304_ ::var_is_introduced :: is_defined_var;
var 0..90: X_INTRODUCED_306_ ::var_is_introduced :: is_defined_var;
var 0..90: X_INTRODUCED_308_ ::var_is_introduced :: is_defined_var;
var 6120..538500: X_INTRODUCED_319_ ::var_is_introduced :: is_defined_var;
var 6120..538500: X_INTRODUCED_320_ ::var_is_introduced :: is_defined_var;
var 6120..538500: X_INTRODUCED_321_ ::var_is_introduced :: is_defined_var;
var 642199..1174579: X_INTRODUCED_327_ ::var_is_introduced :: is_defined_var;
var 642199..1174579: X_INTRODUCED_329_ ::var_is_introduced :: is_defined_var;
var -21529..510851: X_INTRODUCED_330_ ::var_is_introduced :: is_defined_var;
var 0..510851: X_INTRODUCED_332_ ::var_is_introduced :: is_defined_var;
array [1..5] of var int: job_program:: output_array([1..5]) = [X_INTRODUCED_0_,X_INTRODUCED_1_,X_INTRODUCED_2_,X_INTRODUCED_3_,X_INTRODUCED_4_];
array [1..5] of var int: job_length:: output_array([1..5]) = [X_INTRODUCED_5_,X_INTRODUCED_6_,X_INTRODUCED_7_,X_INTRODUCED_8_,X_INTRODUCED_9_];
array [1..10] of var int: X_INTRODUCED_10_:: output_array([1..10]) = [X_INTRODUCED_11_,X_INTRODUCED_12_,X_INTRODUCED_13_,X_INTRODUCED_14_,X_INTRODUCED_15_,X_INTRODUCED_16_,X_INTRODUCED_17_,X_INTRODUCED_18_,X_INTRODUCED_19_,X_INTRODUCED_20_];
array [1..10] of var int: X_INTRODUCED_21_:: output_array([1..10]) = [X_INTRODUCED_116_,X_INTRODUCED_117_,X_INTRODUCED_118_,X_INTRODUCED_119_,X_INTRODUCED_120_,X_INTRODUCED_121_,X_INTRODUCED_122_,X_INTRODUCED_123_,X_INTRODUCED_124_,X_INTRODUCED_125_];
array [1..5] of var int: job_end:: output_array([1..5]) = [X_INTRODUCED_32_,X_INTRODUCED_33_,X_INTRODUCED_34_,X_INTRODUCED_35_,X_INTRODUCED_36_];
array [1..5] of var int: job_time:: output_array([1..5]) = [X_INTRODUCED_37_,X_INTRODUCED_38_,X_INTRODUCED_39_,X_INTRODUCED_40_,X_INTRODUCED_41_];
array [1..2] of var int: demand_end:: output_array([1..2]) = [X_INTRODUCED_221_,X_INTRODUCED_267_];
array [1..2] of var int: demand_end_job:: output_array([1..2]) = [X_INTRODUCED_44_,X_INTRODUCED_45_];
array [1..10] of var int: X_INTRODUCED_46_ ::var_is_introduced  = [X_INTRODUCED_11_,X_INTRODUCED_12_,X_INTRODUCED_13_,X_INTRODUCED_14_,X_INTRODUCED_15_,X_INTRODUCED_16_,X_INTRODUCED_17_,X_INTRODUCED_18_,X_INTRODUCED_19_,X_INTRODUCED_20_];
array [1..2] of var int: X_INTRODUCED_234_ ::var_is_introduced  = [X_INTRODUCED_116_,0];
array [1..2] of var bool: X_INTRODUCED_235_ ::var_is_introduced  = [true,true];
array [1..2] of var int: X_INTRODUCED_237_ ::var_is_introduced  = [X_INTRODUCED_118_,0];
array [1..2] of var bool: X_INTRODUCED_238_ ::var_is_introduced  = [X_INTRODUCED_225_,true];
array [1..2] of var int: X_INTRODUCED_240_ ::var_is_introduced  = [X_INTRODUCED_120_,0];
array [1..2] of var bool: X_INTRODUCED_241_ ::var_is_introduced  = [X_INTRODUCED_227_,true];
array [1..2] of var int: X_INTRODUCED_243_ ::var_is_introduced  = [X_INTRODUCED_122_,0];
array [1..2] of var bool: X_INTRODUCED_244_ ::var_is_introduced  = [X_INTRODUCED_229_,true];
array [1..2] of var int: X_INTRODUCED_246_ ::var_is_introduced  = [X_INTRODUCED_124_,0];
array [1..2] of var bool: X_INTRODUCED_247_ ::var_is_introduced  = [X_INTRODUCED_231_,true];
array [1..2] of var bool: X_INTRODUCED_257_ ::var_is_introduced  = [X_INTRODUCED_252_,true];
array [1..2] of var bool: X_INTRODUCED_259_ ::var_is_introduced  = [X_INTRODUCED_253_,true];
array [1..2] of var bool: X_INTRODUCED_261_ ::var_is_introduced  = [X_INTRODUCED_254_,true];
array [1..2] of var bool: X_INTRODUCED_263_ ::var_is_introduced  = [X_INTRODUCED_255_,true];
array [1..2] of var int: X_INTRODUCED_280_ ::var_is_introduced  = [X_INTRODUCED_117_,0];
array [1..2] of var bool: X_INTRODUCED_281_ ::var_is_introduced  = [true,true];
array [1..2] of var int: X_INTRODUCED_283_ ::var_is_introduced  = [X_INTRODUCED_119_,0];
array [1..2] of var bool: X_INTRODUCED_284_ ::var_is_introduced  = [X_INTRODUCED_271_,true];
array [1..2] of var int: X_INTRODUCED_286_ ::var_is_introduced  = [X_INTRODUCED_121_,0];
array [1..2] of var bool: X_INTRODUCED_287_ ::var_is_introduced  = [X_INTRODUCED_273_,true];
array [1..2] of var int: X_INTRODUCED_289_ ::var_is_introduced  = [X_INTRODUCED_123_,0];
array [1..2] of var bool: X_INTRODUCED_290_ ::var_is_introduced  = [X_INTRODUCED_275_,true];
array [1..2] of var int: X_INTRODUCED_292_ ::var_is_introduced  = [X_INTRODUCED_125_,0];
array [1..2] of var bool: X_INTRODUCED_293_ ::var_is_introduced  = [X_INTRODUCED_277_,true];
array [1..2] of var bool: X_INTRODUCED_303_ ::var_is_introduced  = [X_INTRODUCED_298_,true];
array [1..2] of var bool: X_INTRODUCED_305_ ::var_is_introduced  = [X_INTRODUCED_299_,true];
array [1..2] of var bool: X_INTRODUCED_307_ ::var_is_introduced  = [X_INTRODUCED_300_,true];
array [1..2] of var bool: X_INTRODUCED_309_ ::var_is_introduced  = [X_INTRODUCED_301_,true];
array [1..11] of var int: X_INTRODUCED_325_ ::var_is_introduced  = [waste,X_INTRODUCED_116_,X_INTRODUCED_117_,X_INTRODUCED_118_,X_INTRODUCED_119_,X_INTRODUCED_120_,X_INTRODUCED_121_,X_INTRODUCED_122_,X_INTRODUCED_123_,X_INTRODUCED_124_,X_INTRODUCED_125_];
constraint bool_clause([X_INTRODUCED_49_,X_INTRODUCED_50_],[]);
constraint bool_clause([X_INTRODUCED_51_,X_INTRODUCED_52_],[]);
constraint bool_clause([X_INTRODUCED_53_,X_INTRODUCED_54_],[]);
constraint bool_clause([X_INTRODUCED_55_,X_INTRODUCED_56_],[]);
constraint bool_clause([X_INTRODUCED_50_,X_INTRODUCED_57_],[]);
constraint bool_clause([X_INTRODUCED_52_,X_INTRODUCED_58_],[]);
constraint bool_clause([X_INTRODUCED_54_,X_INTRODUCED_59_],[]);
constraint bool_clause([X_INTRODUCED_56_,X_INTRODUCED_60_],[]);
constraint bool_clause([X_INTRODUCED_61_,X_INTRODUCED_62_],[]);
constraint array_int_element(X_INTRODUCED_67_,X_INTRODUCED_68_,X_INTRODUCED_65_):: defines_var(X_INTRODUCED_65_);
constraint int_lin_eq(X_INTRODUCED_69_,[X_INTRODUCED_11_,X_INTRODUCED_12_,X_INTRODUCED_65_],0);
constraint array_int_element(X_INTRODUCED_72_,X_INTRODUCED_68_,X_INTRODUCED_71_):: defines_var(X_INTRODUCED_71_);
constraint int_lin_eq(X_INTRODUCED_69_,[X_INTRODUCED_13_,X_INTRODUCED_14_,X_INTRODUCED_71_],0);
constraint array_int_element(X_INTRODUCED_75_,X_INTRODUCED_68_,X_INTRODUCED_74_):: defines_var(X_INTRODUCED_74_);
constraint int_lin_eq(X_INTRODUCED_69_,[X_INTRODUCED_15_,X_INTRODUCED_16_,X_INTRODUCED_74_],0);
constraint array_int_element(X_INTRODUCED_78_,X_INTRODUCED_68_,X_INTRODUCED_77_):: defines_var(X_INTRODUCED_77_);
constraint int_lin_eq(X_INTRODUCED_69_,[X_INTRODUCED_17_,X_INTRODUCED_18_,X_INTRODUCED_77_],0);
constraint array_int_element(X_INTRODUCED_81_,X_INTRODUCED_68_,X_INTRODUCED_80_):: defines_var(X_INTRODUCED_80_);
constraint int_lin_eq(X_INTRODUCED_69_,[X_INTRODUCED_19_,X_INTRODUCED_20_,X_INTRODUCED_80_],0);
constraint int_lin_le(X_INTRODUCED_99_,[X_INTRODUCED_116_,X_INTRODUCED_118_,X_INTRODUCED_120_,X_INTRODUCED_122_,X_INTRODUCED_124_],-14);
constraint int_lin_le(X_INTRODUCED_99_,[X_INTRODUCED_117_,X_INTRODUCED_119_,X_INTRODUCED_121_,X_INTRODUCED_123_,X_INTRODUCED_125_],-8);
constraint bool_clause([X_INTRODUCED_101_,X_INTRODUCED_102_],[]);
constraint bool_clause([X_INTRODUCED_102_,X_INTRODUCED_103_],[]);
constraint bool_clause([X_INTRODUCED_104_,X_INTRODUCED_105_],[]);
constraint bool_clause([X_INTRODUCED_105_,X_INTRODUCED_106_],[]);
constraint bool_clause([X_INTRODUCED_107_,X_INTRODUCED_108_],[]);
constraint bool_clause([X_INTRODUCED_108_,X_INTRODUCED_109_],[]);
constraint bool_clause([X_INTRODUCED_110_,X_INTRODUCED_111_],[]);
constraint bool_clause([X_INTRODUCED_111_,X_INTRODUCED_112_],[]);
constraint bool_clause([X_INTRODUCED_113_,X_INTRODUCED_114_],[]);
constraint bool_clause([X_INTRODUCED_114_,X_INTRODUCED_115_],[]);
constraint array_var_int_element(X_INTRODUCED_44_,job_end,X_INTRODUCED_221_):: defines_var(X_INTRODUCED_221_);
constraint array_var_int_element(X_INTRODUCED_44_,job_program,X_INTRODUCED_222_):: defines_var(X_INTRODUCED_222_);
constraint bool_eq(X_INTRODUCED_225_,X_INTRODUCED_226_):: domain_change_constraint;
constraint bool_eq(X_INTRODUCED_227_,X_INTRODUCED_228_):: domain_change_constraint;
constraint bool_eq(X_INTRODUCED_229_,X_INTRODUCED_230_):: domain_change_constraint;
constraint bool_eq(X_INTRODUCED_231_,X_INTRODUCED_232_):: domain_change_constraint;
constraint fzn_if_then_else_var_int(X_INTRODUCED_235_,X_INTRODUCED_234_,X_INTRODUCED_233_):: defines_var(X_INTRODUCED_233_);
constraint fzn_if_then_else_var_int(X_INTRODUCED_238_,X_INTRODUCED_237_,X_INTRODUCED_236_):: defines_var(X_INTRODUCED_236_);
constraint fzn_if_then_else_var_int(X_INTRODUCED_241_,X_INTRODUCED_240_,X_INTRODUCED_239_):: defines_var(X_INTRODUCED_239_);
constraint fzn_if_then_else_var_int(X_INTRODUCED_244_,X_INTRODUCED_243_,X_INTRODUCED_242_):: defines_var(X_INTRODUCED_242_);
constraint fzn_if_then_else_var_int(X_INTRODUCED_247_,X_INTRODUCED_246_,X_INTRODUCED_245_):: defines_var(X_INTRODUCED_245_);
constraint int_lin_le(X_INTRODUCED_99_,[X_INTRODUCED_233_,X_INTRODUCED_236_,X_INTRODUCED_239_,X_INTRODUCED_242_,X_INTRODUCED_245_],-14);
constraint bool_eq(X_INTRODUCED_252_,X_INTRODUCED_226_):: domain_change_constraint;
constraint bool_eq(X_INTRODUCED_253_,X_INTRODUCED_228_):: domain_change_constraint;
constraint bool_eq(X_INTRODUCED_254_,X_INTRODUCED_230_):: domain_change_constraint;
constraint bool_eq(X_INTRODUCED_255_,X_INTRODUCED_232_):: domain_change_constraint;
constraint fzn_if_then_else_var_int(X_INTRODUCED_257_,X_INTRODUCED_234_,X_INTRODUCED_256_):: defines_var(X_INTRODUCED_256_);
constraint fzn_if_then_else_var_int(X_INTRODUCED_259_,X_INTRODUCED_237_,X_INTRODUCED_258_):: defines_var(X_INTRODUCED_258_);
constraint fzn_if_then_else_var_int(X_INTRODUCED_261_,X_INTRODUCED_240_,X_INTRODUCED_260_):: defines_var(X_INTRODUCED_260_);
constraint fzn_if_then_else_var_int(X_INTRODUCED_263_,X_INTRODUCED_243_,X_INTRODUCED_262_):: defines_var(X_INTRODUCED_262_);
constraint int_lin_le(X_INTRODUCED_266_,[X_INTRODUCED_256_,X_INTRODUCED_258_,X_INTRODUCED_260_,X_INTRODUCED_262_],13);
constraint array_var_int_element(X_INTRODUCED_45_,job_end,X_INTRODUCED_267_):: defines_var(X_INTRODUCED_267_);
constraint array_var_int_element(X_INTRODUCED_45_,job_program,X_INTRODUCED_268_):: defines_var(X_INTRODUCED_268_);
constraint bool_eq(X_INTRODUCED_271_,X_INTRODUCED_272_):: domain_change_constraint;
constraint bool_eq(X_INTRODUCED_273_,X_INTRODUCED_274_):: domain_change_constraint;
constraint bool_eq(X_INTRODUCED_275_,X_INTRODUCED_276_):: domain_change_constraint;
constraint bool_eq(X_INTRODUCED_277_,X_INTRODUCED_278_):: domain_change_constraint;
constraint fzn_if_then_else_var_int(X_INTRODUCED_281_,X_INTRODUCED_280_,X_INTRODUCED_279_):: defines_var(X_INTRODUCED_279_);
constraint fzn_if_then_else_var_int(X_INTRODUCED_284_,X_INTRODUCED_283_,X_INTRODUCED_282_):: defines_var(X_INTRODUCED_282_);
constraint fzn_if_then_else_var_int(X_INTRODUCED_287_,X_INTRODUCED_286_,X_INTRODUCED_285_):: defines_var(X_INTRODUCED_285_);
constraint fzn_if_then_else_var_int(X_INTRODUCED_290_,X_INTRODUCED_289_,X_INTRODUCED_288_):: defines_var(X_INTRODUCED_288_);
constraint fzn_if_then_else_var_int(X_INTRODUCED_293_,X_INTRODUCED_292_,X_INTRODUCED_291_):: defines_var(X_INTRODUCED_291_);
constraint int_lin_le(X_INTRODUCED_99_,[X_INTRODUCED_279_,X_INTRODUCED_282_,X_INTRODUCED_285_,X_INTRODUCED_288_,X_INTRODUCED_291_],-8);
constraint bool_eq(X_INTRODUCED_298_,X_INTRODUCED_272_):: domain_change_constraint;
constraint bool_eq(X_INTRODUCED_299_,X_INTRODUCED_274_):: domain_change_constraint;
constraint bool_eq(X_INTRODUCED_300_,X_INTRODUCED_276_):: domain_change_constraint;
constraint bool_eq(X_INTRODUCED_301_,X_INTRODUCED_278_):: domain_change_constraint;
constraint fzn_if_then_else_var_int(X_INTRODUCED_303_,X_INTRODUCED_280_,X_INTRODUCED_302_):: defines_var(X_INTRODUCED_302_);
constraint fzn_if_then_else_var_int(X_INTRODUCED_305_,X_INTRODUCED_283_,X_INTRODUCED_304_):: defines_var(X_INTRODUCED_304_);
constraint fzn_if_then_else_var_int(X_INTRODUCED_307_,X_INTRODUCED_286_,X_INTRODUCED_306_):: defines_var(X_INTRODUCED_306_);
constraint fzn_if_then_else_var_int(X_INTRODUCED_309_,X_INTRODUCED_289_,X_INTRODUCED_308_):: defines_var(X_INTRODUCED_308_);
constraint int_lin_le(X_INTRODUCED_266_,[X_INTRODUCED_302_,X_INTRODUCED_304_,X_INTRODUCED_306_,X_INTRODUCED_308_],7);
constraint int_max(X_INTRODUCED_33_,X_INTRODUCED_32_,X_INTRODUCED_319_):: defines_var(X_INTRODUCED_319_);
constraint int_max(X_INTRODUCED_34_,X_INTRODUCED_319_,X_INTRODUCED_320_):: defines_var(X_INTRODUCED_320_);
constraint int_max(X_INTRODUCED_35_,X_INTRODUCED_320_,X_INTRODUCED_321_):: defines_var(X_INTRODUCED_321_);
constraint int_max(X_INTRODUCED_36_,X_INTRODUCED_321_,makespan):: defines_var(makespan);
constraint int_lin_eq(X_INTRODUCED_326_,X_INTRODUCED_325_,-22):: defines_var(waste);
constraint int_max(0,X_INTRODUCED_327_,X_INTRODUCED_329_):: defines_var(X_INTRODUCED_329_);
constraint int_max(0,X_INTRODUCED_330_,X_INTRODUCED_332_):: defines_var(X_INTRODUCED_332_);
constraint int_lin_eq(X_INTRODUCED_334_,[tardiness,X_INTRODUCED_329_,X_INTRODUCED_332_],0):: defines_var(tardiness);
constraint bool_clause([X_INTRODUCED_129_,X_INTRODUCED_130_],[]);
constraint bool_clause([X_INTRODUCED_135_,X_INTRODUCED_136_],[]);
constraint bool_clause([X_INTRODUCED_139_,X_INTRODUCED_140_],[]);
constraint bool_clause([X_INTRODUCED_143_,X_INTRODUCED_144_],[]);
constraint bool_clause([X_INTRODUCED_147_,X_INTRODUCED_148_],[]);
constraint bool_clause([X_INTRODUCED_151_,X_INTRODUCED_152_],[]);
constraint bool_clause([X_INTRODUCED_155_,X_INTRODUCED_156_],[]);
constraint bool_clause([X_INTRODUCED_159_,X_INTRODUCED_160_],[]);
constraint bool_clause([X_INTRODUCED_163_,X_INTRODUCED_164_],[]);
constraint bool_clause([X_INTRODUCED_167_,X_INTRODUCED_168_],[]);
constraint bool_clause([X_INTRODUCED_171_,X_INTRODUCED_172_],[]);
constraint bool_clause([X_INTRODUCED_181_,X_INTRODUCED_182_],[]);
constraint bool_clause([X_INTRODUCED_190_,X_INTRODUCED_191_],[]);
constraint bool_clause([X_INTRODUCED_199_,X_INTRODUCED_200_],[]);
constraint bool_clause([X_INTRODUCED_208_,X_INTRODUCED_209_],[]);
constraint bool_clause([X_INTRODUCED_50_,X_INTRODUCED_211_],[]);
constraint bool_clause([X_INTRODUCED_52_,X_INTRODUCED_213_],[]);
constraint bool_clause([X_INTRODUCED_54_,X_INTRODUCED_215_],[]);
constraint bool_clause([X_INTRODUCED_56_,X_INTRODUCED_217_],[]);
constraint bool_clause([X_INTRODUCED_62_,X_INTRODUCED_219_],[]);
constraint int_lin_eq([1,1,1,-1],[tardiness,makespan,waste,X_INTRODUCED_47_],0):: ctx_neg:: defines_var(X_INTRODUCED_47_);
constraint int_eq_reif(X_INTRODUCED_1_,0,X_INTRODUCED_49_):: defines_var(X_INTRODUCED_49_);
constraint int_ne_reif(X_INTRODUCED_0_,0,X_INTRODUCED_50_):: defines_var(X_INTRODUCED_50_);
constraint int_eq_reif(X_INTRODUCED_2_,0,X_INTRODUCED_51_):: defines_var(X_INTRODUCED_51_);
constraint int_ne_reif(X_INTRODUCED_1_,0,X_INTRODUCED_52_):: defines_var(X_INTRODUCED_52_);
constraint int_eq_reif(X_INTRODUCED_3_,0,X_INTRODUCED_53_):: defines_var(X_INTRODUCED_53_);
constraint int_ne_reif(X_INTRODUCED_2_,0,X_INTRODUCED_54_):: defines_var(X_INTRODUCED_54_);
constraint int_eq_reif(X_INTRODUCED_4_,0,X_INTRODUCED_55_):: defines_var(X_INTRODUCED_55_);
constraint int_ne_reif(X_INTRODUCED_3_,0,X_INTRODUCED_56_):: defines_var(X_INTRODUCED_56_);
constraint int_eq_reif(X_INTRODUCED_5_,2,X_INTRODUCED_57_):: defines_var(X_INTRODUCED_57_);
constraint int_eq_reif(X_INTRODUCED_6_,2,X_INTRODUCED_58_):: defines_var(X_INTRODUCED_58_);
constraint int_eq_reif(X_INTRODUCED_7_,2,X_INTRODUCED_59_):: defines_var(X_INTRODUCED_59_);
constraint int_eq_reif(X_INTRODUCED_8_,2,X_INTRODUCED_60_):: defines_var(X_INTRODUCED_60_);
constraint int_eq_reif(X_INTRODUCED_9_,2,X_INTRODUCED_61_):: defines_var(X_INTRODUCED_61_);
constraint int_ne_reif(X_INTRODUCED_4_,0,X_INTRODUCED_62_):: defines_var(X_INTRODUCED_62_);
constraint int_lin_eq([1,-1],[X_INTRODUCED_0_,X_INTRODUCED_67_],-1):: domain:: defines_var(X_INTRODUCED_67_);
constraint int_lin_eq([1,-1],[X_INTRODUCED_1_,X_INTRODUCED_72_],-1):: domain:: defines_var(X_INTRODUCED_72_);
constraint int_lin_eq([1,-1],[X_INTRODUCED_2_,X_INTRODUCED_75_],-1):: domain:: defines_var(X_INTRODUCED_75_);
constraint int_lin_eq([1,-1],[X_INTRODUCED_3_,X_INTRODUCED_78_],-1):: domain:: defines_var(X_INTRODUCED_78_);
constraint int_lin_eq([1,-1],[X_INTRODUCED_4_,X_INTRODUCED_81_],-1):: domain:: defines_var(X_INTRODUCED_81_);
constraint int_eq_reif(X_INTRODUCED_11_,0,X_INTRODUCED_101_):: defines_var(X_INTRODUCED_101_);
constraint int_eq_reif(X_INTRODUCED_0_,1,X_INTRODUCED_102_):: defines_var(X_INTRODUCED_102_);
constraint int_eq_reif(X_INTRODUCED_12_,0,X_INTRODUCED_103_):: defines_var(X_INTRODUCED_103_);
constraint int_eq_reif(X_INTRODUCED_13_,0,X_INTRODUCED_104_):: defines_var(X_INTRODUCED_104_);
constraint int_eq_reif(X_INTRODUCED_1_,1,X_INTRODUCED_105_):: defines_var(X_INTRODUCED_105_);
constraint int_eq_reif(X_INTRODUCED_14_,0,X_INTRODUCED_106_):: defines_var(X_INTRODUCED_106_);
constraint int_eq_reif(X_INTRODUCED_15_,0,X_INTRODUCED_107_):: defines_var(X_INTRODUCED_107_);
constraint int_eq_reif(X_INTRODUCED_2_,1,X_INTRODUCED_108_):: defines_var(X_INTRODUCED_108_);
constraint int_eq_reif(X_INTRODUCED_16_,0,X_INTRODUCED_109_):: defines_var(X_INTRODUCED_109_);
constraint int_eq_reif(X_INTRODUCED_17_,0,X_INTRODUCED_110_):: defines_var(X_INTRODUCED_110_);
constraint int_eq_reif(X_INTRODUCED_3_,1,X_INTRODUCED_111_):: defines_var(X_INTRODUCED_111_);
constraint int_eq_reif(X_INTRODUCED_18_,0,X_INTRODUCED_112_):: defines_var(X_INTRODUCED_112_);
constraint int_eq_reif(X_INTRODUCED_19_,0,X_INTRODUCED_113_):: defines_var(X_INTRODUCED_113_);
constraint int_eq_reif(X_INTRODUCED_4_,1,X_INTRODUCED_114_):: defines_var(X_INTRODUCED_114_);
constraint int_eq_reif(X_INTRODUCED_20_,0,X_INTRODUCED_115_):: defines_var(X_INTRODUCED_115_);
constraint int_times(X_INTRODUCED_11_,X_INTRODUCED_5_,X_INTRODUCED_116_):: defines_var(X_INTRODUCED_116_);
constraint int_times(X_INTRODUCED_12_,X_INTRODUCED_5_,X_INTRODUCED_117_):: defines_var(X_INTRODUCED_117_);
constraint int_times(X_INTRODUCED_13_,X_INTRODUCED_6_,X_INTRODUCED_118_):: defines_var(X_INTRODUCED_118_);
constraint int_times(X_INTRODUCED_14_,X_INTRODUCED_6_,X_INTRODUCED_119_):: defines_var(X_INTRODUCED_119_);
constraint int_times(X_INTRODUCED_15_,X_INTRODUCED_7_,X_INTRODUCED_120_):: defines_var(X_INTRODUCED_120_);
constraint int_times(X_INTRODUCED_16_,X_INTRODUCED_7_,X_INTRODUCED_121_):: defines_var(X_INTRODUCED_121_);
constraint int_times(X_INTRODUCED_17_,X_INTRODUCED_8_,X_INTRODUCED_122_):: defines_var(X_INTRODUCED_122_);
constraint int_times(X_INTRODUCED_18_,X_INTRODUCED_8_,X_INTRODUCED_123_):: defines_var(X_INTRODUCED_123_);
constraint int_times(X_INTRODUCED_19_,X_INTRODUCED_9_,X_INTRODUCED_124_):: defines_var(X_INTRODUCED_124_);
constraint int_times(X_INTRODUCED_20_,X_INTRODUCED_9_,X_INTRODUCED_125_):: defines_var(X_INTRODUCED_125_);
constraint int_lin_eq_reif(X_INTRODUCED_128_,[X_INTRODUCED_37_,X_INTRODUCED_5_],0,X_INTRODUCED_129_):: defines_var(X_INTRODUCED_129_);
constraint int_ne_reif(X_INTRODUCED_0_,1,X_INTRODUCED_130_):: defines_var(X_INTRODUCED_130_);
constraint int_lin_eq_reif(X_INTRODUCED_134_,[X_INTRODUCED_37_,X_INTRODUCED_5_],0,X_INTRODUCED_135_):: defines_var(X_INTRODUCED_135_);
constraint int_ne_reif(X_INTRODUCED_0_,2,X_INTRODUCED_136_):: defines_var(X_INTRODUCED_136_);
constraint int_lin_eq_reif(X_INTRODUCED_128_,[X_INTRODUCED_38_,X_INTRODUCED_6_],0,X_INTRODUCED_139_):: defines_var(X_INTRODUCED_139_);
constraint int_ne_reif(X_INTRODUCED_1_,1,X_INTRODUCED_140_):: defines_var(X_INTRODUCED_140_);
constraint int_lin_eq_reif(X_INTRODUCED_134_,[X_INTRODUCED_38_,X_INTRODUCED_6_],0,X_INTRODUCED_143_):: defines_var(X_INTRODUCED_143_);
constraint int_ne_reif(X_INTRODUCED_1_,2,X_INTRODUCED_144_):: defines_var(X_INTRODUCED_144_);
constraint int_lin_eq_reif(X_INTRODUCED_128_,[X_INTRODUCED_39_,X_INTRODUCED_7_],0,X_INTRODUCED_147_):: defines_var(X_INTRODUCED_147_);
constraint int_ne_reif(X_INTRODUCED_2_,1,X_INTRODUCED_148_):: defines_var(X_INTRODUCED_148_);
constraint int_lin_eq_reif(X_INTRODUCED_134_,[X_INTRODUCED_39_,X_INTRODUCED_7_],0,X_INTRODUCED_151_):: defines_var(X_INTRODUCED_151_);
constraint int_ne_reif(X_INTRODUCED_2_,2,X_INTRODUCED_152_):: defines_var(X_INTRODUCED_152_);
constraint int_lin_eq_reif(X_INTRODUCED_128_,[X_INTRODUCED_40_,X_INTRODUCED_8_],0,X_INTRODUCED_155_):: defines_var(X_INTRODUCED_155_);
constraint int_ne_reif(X_INTRODUCED_3_,1,X_INTRODUCED_156_):: defines_var(X_INTRODUCED_156_);
constraint int_lin_eq_reif(X_INTRODUCED_134_,[X_INTRODUCED_40_,X_INTRODUCED_8_],0,X_INTRODUCED_159_):: defines_var(X_INTRODUCED_159_);
constraint int_ne_reif(X_INTRODUCED_3_,2,X_INTRODUCED_160_):: defines_var(X_INTRODUCED_160_);
constraint int_lin_eq_reif(X_INTRODUCED_128_,[X_INTRODUCED_41_,X_INTRODUCED_9_],0,X_INTRODUCED_163_):: defines_var(X_INTRODUCED_163_);
constraint int_ne_reif(X_INTRODUCED_4_,1,X_INTRODUCED_164_):: defines_var(X_INTRODUCED_164_);
constraint int_lin_eq_reif(X_INTRODUCED_134_,[X_INTRODUCED_41_,X_INTRODUCED_9_],0,X_INTRODUCED_167_):: defines_var(X_INTRODUCED_167_);
constraint int_ne_reif(X_INTRODUCED_4_,2,X_INTRODUCED_168_):: defines_var(X_INTRODUCED_168_);
constraint int_eq_reif(X_INTRODUCED_32_,X_INTRODUCED_37_,X_INTRODUCED_171_):: defines_var(X_INTRODUCED_171_);
constraint int_le_reif(X_INTRODUCED_0_,0,X_INTRODUCED_172_):: defines_var(X_INTRODUCED_172_);
constraint int_lin_ne_reif(X_INTRODUCED_175_,[X_INTRODUCED_0_,X_INTRODUCED_1_],0,X_INTRODUCED_176_):: defines_var(X_INTRODUCED_176_);
constraint bool2int(X_INTRODUCED_176_,X_INTRODUCED_177_):: defines_var(X_INTRODUCED_177_);
constraint int_lin_eq_reif(X_INTRODUCED_180_,[X_INTRODUCED_33_,X_INTRODUCED_37_,X_INTRODUCED_38_,X_INTRODUCED_177_],300,X_INTRODUCED_181_):: defines_var(X_INTRODUCED_181_);
constraint int_le_reif(X_INTRODUCED_1_,0,X_INTRODUCED_182_):: defines_var(X_INTRODUCED_182_);
constraint int_lin_ne_reif(X_INTRODUCED_175_,[X_INTRODUCED_1_,X_INTRODUCED_2_],0,X_INTRODUCED_184_):: defines_var(X_INTRODUCED_184_);
constraint bool2int(X_INTRODUCED_184_,X_INTRODUCED_185_):: defines_var(X_INTRODUCED_185_);
constraint int_lin_eq_reif(X_INTRODUCED_189_,[X_INTRODUCED_34_,X_INTRODUCED_37_,X_INTRODUCED_38_,X_INTRODUCED_177_,X_INTRODUCED_39_,X_INTRODUCED_185_],600,X_INTRODUCED_190_):: defines_var(X_INTRODUCED_190_);
constraint int_le_reif(X_INTRODUCED_2_,0,X_INTRODUCED_191_):: defines_var(X_INTRODUCED_191_);
constraint int_lin_ne_reif(X_INTRODUCED_175_,[X_INTRODUCED_2_,X_INTRODUCED_3_],0,X_INTRODUCED_193_):: defines_var(X_INTRODUCED_193_);
constraint bool2int(X_INTRODUCED_193_,X_INTRODUCED_194_):: defines_var(X_INTRODUCED_194_);
constraint int_lin_eq_reif(X_INTRODUCED_198_,[X_INTRODUCED_35_,X_INTRODUCED_37_,X_INTRODUCED_38_,X_INTRODUCED_177_,X_INTRODUCED_39_,X_INTRODUCED_185_,X_INTRODUCED_40_,X_INTRODUCED_194_],900,X_INTRODUCED_199_):: defines_var(X_INTRODUCED_199_);
constraint int_le_reif(X_INTRODUCED_3_,0,X_INTRODUCED_200_):: defines_var(X_INTRODUCED_200_);
constraint int_lin_ne_reif(X_INTRODUCED_175_,[X_INTRODUCED_3_,X_INTRODUCED_4_],0,X_INTRODUCED_202_):: defines_var(X_INTRODUCED_202_);
constraint bool2int(X_INTRODUCED_202_,X_INTRODUCED_203_):: defines_var(X_INTRODUCED_203_);
constraint int_lin_eq_reif(X_INTRODUCED_207_,[X_INTRODUCED_36_,X_INTRODUCED_37_,X_INTRODUCED_38_,X_INTRODUCED_177_,X_INTRODUCED_39_,X_INTRODUCED_185_,X_INTRODUCED_40_,X_INTRODUCED_194_,X_INTRODUCED_41_,X_INTRODUCED_203_],1200,X_INTRODUCED_208_):: defines_var(X_INTRODUCED_208_);
constraint int_le_reif(X_INTRODUCED_4_,0,X_INTRODUCED_209_):: defines_var(X_INTRODUCED_209_);
constraint int_eq_reif(X_INTRODUCED_32_,6120,X_INTRODUCED_211_):: defines_var(X_INTRODUCED_211_);
constraint int_eq_reif(X_INTRODUCED_33_,6120,X_INTRODUCED_213_):: defines_var(X_INTRODUCED_213_);
constraint int_eq_reif(X_INTRODUCED_34_,6120,X_INTRODUCED_215_):: defines_var(X_INTRODUCED_215_);
constraint int_eq_reif(X_INTRODUCED_35_,6120,X_INTRODUCED_217_):: defines_var(X_INTRODUCED_217_);
constraint int_eq_reif(X_INTRODUCED_36_,6120,X_INTRODUCED_219_):: defines_var(X_INTRODUCED_219_);
constraint set_in(1,X_INTRODUCED_223_);
constraint set_in_reif(2,X_INTRODUCED_223_,X_INTRODUCED_225_):: defines_var(X_INTRODUCED_225_);
constraint int_le_reif(2,X_INTRODUCED_44_,X_INTRODUCED_226_):: defines_var(X_INTRODUCED_226_);
constraint set_in_reif(3,X_INTRODUCED_223_,X_INTRODUCED_227_):: defines_var(X_INTRODUCED_227_);
constraint int_le_reif(3,X_INTRODUCED_44_,X_INTRODUCED_228_):: defines_var(X_INTRODUCED_228_);
constraint set_in_reif(4,X_INTRODUCED_223_,X_INTRODUCED_229_):: defines_var(X_INTRODUCED_229_);
constraint int_le_reif(4,X_INTRODUCED_44_,X_INTRODUCED_230_):: defines_var(X_INTRODUCED_230_);
constraint set_in_reif(5,X_INTRODUCED_223_,X_INTRODUCED_231_):: defines_var(X_INTRODUCED_231_);
constraint int_le_reif(5,X_INTRODUCED_44_,X_INTRODUCED_232_):: defines_var(X_INTRODUCED_232_);
constraint set_in_reif(1,X_INTRODUCED_251_,X_INTRODUCED_252_):: defines_var(X_INTRODUCED_252_);
constraint set_in_reif(2,X_INTRODUCED_251_,X_INTRODUCED_253_):: defines_var(X_INTRODUCED_253_);
constraint set_in_reif(3,X_INTRODUCED_251_,X_INTRODUCED_254_):: defines_var(X_INTRODUCED_254_);
constraint set_in_reif(4,X_INTRODUCED_251_,X_INTRODUCED_255_):: defines_var(X_INTRODUCED_255_);
constraint set_in(1,X_INTRODUCED_269_);
constraint set_in_reif(2,X_INTRODUCED_269_,X_INTRODUCED_271_):: defines_var(X_INTRODUCED_271_);
constraint int_le_reif(2,X_INTRODUCED_45_,X_INTRODUCED_272_):: defines_var(X_INTRODUCED_272_);
constraint set_in_reif(3,X_INTRODUCED_269_,X_INTRODUCED_273_):: defines_var(X_INTRODUCED_273_);
constraint int_le_reif(3,X_INTRODUCED_45_,X_INTRODUCED_274_):: defines_var(X_INTRODUCED_274_);
constraint set_in_reif(4,X_INTRODUCED_269_,X_INTRODUCED_275_):: defines_var(X_INTRODUCED_275_);
constraint int_le_reif(4,X_INTRODUCED_45_,X_INTRODUCED_276_):: defines_var(X_INTRODUCED_276_);
constraint set_in_reif(5,X_INTRODUCED_269_,X_INTRODUCED_277_):: defines_var(X_INTRODUCED_277_);
constraint int_le_reif(5,X_INTRODUCED_45_,X_INTRODUCED_278_):: defines_var(X_INTRODUCED_278_);
constraint set_in_reif(1,X_INTRODUCED_297_,X_INTRODUCED_298_):: defines_var(X_INTRODUCED_298_);
constraint set_in_reif(2,X_INTRODUCED_297_,X_INTRODUCED_299_):: defines_var(X_INTRODUCED_299_);
constraint set_in_reif(3,X_INTRODUCED_297_,X_INTRODUCED_300_):: defines_var(X_INTRODUCED_300_);
constraint set_in_reif(4,X_INTRODUCED_297_,X_INTRODUCED_301_):: defines_var(X_INTRODUCED_301_);
constraint int_lin_eq([1,-1],[X_INTRODUCED_221_,X_INTRODUCED_327_],-636079):: defines_var(X_INTRODUCED_327_);
constraint int_lin_eq([1,-1],[X_INTRODUCED_267_,X_INTRODUCED_330_],27649):: defines_var(X_INTRODUCED_330_);
solve :: int_search(X_INTRODUCED_46_,smallest,indomain_min,complete) minimize X_INTRODUCED_47_;
